000 000 000 002 001 000 000 001 001 000 001 003 007 012 014 013 023 030 041 030 012 005 001 000 000 000 000 000 -99 -99 -99
000 000 000 003 003 002 001 005 007 003 006 024 010 016 015 022 028 017 021 021 009 006 002 001 000 000 001 000 -99 -99 -99
000 000 000 001 003 004 003 007 012 017 024 046 017 039 026 032 031 028 012 010 011 006 002 000 000 000 001 000 000 -99 -99
000 000 001 001 003 005 007 009 022 027 052 096 100 129 050 029 023 031 024 013 008 008 003 001 000 000 001 001 000 000 -99
000 000 001 001 004 003 008 007 020 039 179 128 134 152 082 032 014 037 031 012 012 012 002 001 000 000 000 001 001 000 -99
000 000 000 001 002 004 006 008 019 028 165 116 121 105 105 023 008 009 021 008 009 016 007 001 000 000 000 001 001 000 000
000 000 000 001 001 001 003 004 021 031 087 102 096 075 058 034 004 007 011 010 012 017 007 001 001 000 000 -99 -99 001 001
000 002 004 002 001 002 003 010 034 033 056 072 065 057 072 018 003 006 010 010 013 029 012 002 001 000 000 -99 -99 001 001
001 004 005 006 006 009 012 027 057 054 055 089 050 042 037 015 003 008 022 019 021 050 023 006 001 000 000 000 -99 001 001
004 004 007 006 012 022 042 045 057 031 037 075 040 019 010 006 006 024 039 036 029 047 028 017 002 000 000 000 000 001 004
001 003 011 011 022 022 021 033 038 026 015 050 049 015 002 002 004 054 061 078 034 038 026 012 002 000 000 000 000 000 004
001 003 009 008 016 044 028 014 019 008 006 034 058 003 000 002 007 050 054 078 035 033 020 004 001 000 000 000 000 000 003
001 004 015 008 012 028 015 007 003 002 005 033 030 001 001 005 014 046 055 072 069 056 030 007 002 001 000 000 000 000 001
001 009 007 013 019 028 012 004 001 001 003 010 005 000 002 012 019 034 053 061 080 038 032 021 006 001 000 000 000 000 001
001 002 008 007 012 028 003 000 000 000 003 012 015 000 000 009 023 069 054 078 085 033 037 037 015 001 001 000 000 000 001
001 002 007 005 010 014 000 000 000 000 002 001 000 000 001 005 021 078 072 061 085 034 039 042 031 005 004 000 000 001 004
001 001 -99 002 000 000 000 000 000 000 000 000 000 000 001 003 007 016 052 073 068 033 026 008 029 026 008 002 000 000 008
003 002 001 -99 -99 000 000 000 000 000 000 000 000 000 001 002 002 001 004 028 012 005 002 002 018 029 011 002 000 001 005
002 000 000 -99 -99 -99 -99 000 000 000 000 000 000 000 001 001 001 001 002 007 000 002 000 001 006 019 006 002 000 001 002
000 000 000 -99 -99 -99 -99 000 000 000 000 000 000 000 000 000 000 000 000 000 000 000 000 001 004 039 006 -99 000 001 001
000 000 000 000 -99 -99 -99 -99 000 000 000 -99 -99 000 000 000 000 000 000 000 000 000 000 000 001 010 005 -99 -99 000 -99
000 000 000 000 000 -99 -99 -99 000 000 000 -99 -99 000 000 -99 000 000 000 000 000 000 000 000 001 003 -99 -99 -99 -99 -99
000 000 000 000 000 000 -99 -99 000 000 000 -99 -99 000 000 000 000 000 000 000 000 000 000 000 000 003 -99 -99 -99 -99 -99
000 000 000 000 000 000 -99 000 000 000 -99 -99 -99 000 -99 -99 000 000 000 000 000 000 000 000 000 -99 -99 -99 -99 -99 -99
000 000 000 000 000 000 000 000 000 -99 -99 -99 000 000 -99 000 000 000 000 000 000 000 000 -99 -99 -99 -99 -99 -99 -99 -99
000 000 000 000 000 000 000 000 000 000 -99 -99 000 000 -99 000 000 000 000 000 000 000 000 -99 -99 -99 -99 -99 -99 -99 -99
000 000 000 000 000 000 000 000 000 000 000 -99 000 000 000 -99 000 000 000 000 000 000 000 -99 -99 -99 -99 -99 -99 -99 -99
000 000 000 000 000 000 000 000 000 000 000 -99 000 000 000 000 000 000 000 000 000 000 000 -99 -99 -99 -99 -99 -99 000 000
000 000 000 000 000 000 000 000 000 000 000 -99 000 000 000 000 000 000 000 000 000 000 -99 -99 -99 -99 -99 -99 -99 000 000
000 000 000 -99 000 000 000 000 000 000 000 -99 -99 000 000 000 000 000 000 000 000 000 -99 -99 -99 -99 -99 -99 -99 -99 000
000 000 000 000 000 000 000 000 000 000 000 -99 -99 000 000 000 000 000 000 000 -99 -99 -99 -99 000 000 -99 -99 -99 -99 -99
000 000 000 000 000 -99 000 000 000 000 000 -99 -99 -99 000 000 000 000 000 -99 -99 -99 -99 000 000 000 -99 -99 -99 -99 -99
000 000 000 000 000 000 -99 -99 000 000 000 -99 -99 -99 000 -99 000 000 000 -99 -99 -99 000 000 000 000 -99 -99 000 -99 000
000 000 000 000 000 000 000 -99 000 000 -99 -99 -99 -99 -99 000 000 000 000 000 -99 -99 000 000 000 000 -99 000 000 000 000
000 000 000 000 000 000 000 000 000 000 000 000 000 000 000 000 000 -99 000 000 000 -99 000 000 000 000 000 000 000 000 000
000 -99 000 000 000 000 000 000 000 000 -99 000 000 000 000 000 000 -99 000 000 000 -99 000 000 000 000 000 000 000 -99 000
000 000 -99 000 000 -99 000 000 000 000 -99 000 000 000 000 000 000 -99 000 000 000 -99 000 000 000 000 000 -99 000 000 000
000 -99 000 000 000 000 000 000 -99 -99 -99 000 000 000 000 000 000 000 000 000 000 -99 000 000 000 000 000 -99 -99 000 -99
000 000 000 -99 000 000 -99 -99 -99 -99 -99 -99 -99 000 000 000 000 000 -99 -99 000 -99 -99 -99 000 000 000 -99 -99 000 -99
-99 000 000 000 000 -99 -99 -99 -99 -99 000 000 000 000 000 000 000 000 -99 -99 -99 -99 -99 -99 -99 000 000 -99 -99 -99 -99
-99 000 000 000 000 -99 -99 -99 -99 000 000 000 000 000 -99 000 000 000 -99 000 -99 -99 -99 -99 -99 -99 000 -99 -99 -99 -99
000 000 000 000 -99 000 -99 -99 000 000 000 000 000 000 -99 000 000 000 -99 000 -99 -99 -99 -99 -99 -99 -99 -99 -99 -99 -99
000 000 -99 -99 -99 000 000 -99 -99 000 000 000 000 000 -99 000 000 000 000 000 000 -99 -99 -99 -99 -99 -99 -99 -99 -99 -99
-99 -99 -99 -99 -99 000 -99 -99 -99 000 000 000 000 000 000 000 000 -99 000 000 000 -99 -99 -99 -99 -99 -99 -99 -99 -99 -99
-99 -99 -99 -99 -99 -99 -99 -99 -99 -99 000 000 000 -99 000 000 -99 -99 000 000 000 -99 -99 -99 000 -99 -99 -99 -99 -99 -99
000 -99 -99 -99 -99 -99 -99 -99 -99 -99 000 000 000 000 000 -99 -99 000 000 000 -99 -99 000 000 000 -99 000 000 -99 -99 -99
000 -99 -99 -99 -99 -99 -99 -99 -99 -99 -99 000 000 000 000 -99 -99 -99 000 000 -99 -99 000 000 -99 -99 000 000 -99 -99 -99
-99 -99 -99 -99 -99 -99 -99 -99 -99 -99 -99 -99 -99 -99 -99 -99 -99 000 000 -99 -99 000 000 000 -99 -99 000 000 -99 -99 -99
-99 -99 -99 -99 -99 -99 -99 -99 -99 -99 -99 -99 -99 -99 -99 -99 -99 000 000 -99 -99 000 000 -99 -99 000 000 000 -99 -99 -99
-99 -99 -99 -99 -99 -99 -99 -99 -99 -99 -99 -99 -99 -99 -99 -99 -99 000 000 -99 -99 000 -99 -99 -99 000 000 000 -99 -99 -99
-99 -99 -99 -99 -99 -99 -99 -99 -99 -99 -99 -99 -99 -99 -99 -99 000 000 -99 -99 -99 -99 -99 -99 -99 -99 000 -99 -99 -99 -99
-99 -99 -99 -99 -99 -99 -99 -99 -99 -99 -99 -99 -99 -99 -99 -99 -99 000 -99 -99 -99 -99 -99 -99 -99 -99 -99 -99 -99 -99 -99
-99 -99 -99 -99 -99 -99 -99 -99 -99 -99 -99 -99 -99 -99 -99 -99 -99 -99 -99 -99 -99 -99 -99 -99 -99 -99 -99 -99 -99 -99 -99
-99 -99 -99 -99 -99 -99 -99 -99 -99 -99 -99 -99 -99 -99 -99 -99 000 000 -99 -99 -99 -99 -99 -99 -99 -99 -99 -99 -99 -99 -99
-99 -99 -99 -99 -99 -99 -99 -99 -99 -99 -99 -99 -99 -99 -99 000 000 -99 -99 -99 -99 -99 -99 -99 -99 000 -99 -99 -99 -99 -99
